p cnf 35 75
1 2 3 4 5 6 7 0
8 9 10 11 12 13 14 0
15 16 17 18 19 20 21 0
22 23 24 25 26 27 28 0
29 30 31 32 33 34 35 0
-1 -8 0
-1 -15 0
-1 -22 0
-1 -29 0
-8 -15 0
-8 -22 0
-8 -29 0
-15 -22 0
-15 -29 0
-22 -29 0
-2 -9 0
-2 -16 0
-2 -23 0
-2 -30 0
-9 -16 0
-9 -23 0
-9 -30 0
-16 -23 0
-16 -30 0
-23 -30 0
-3 -10 0
-3 -17 0
-3 -24 0
-3 -31 0
-10 -17 0
-10 -24 0
-10 -31 0
-17 -24 0
-17 -31 0
-24 -31 0
-4 -11 0
-4 -18 0
-4 -25 0
-4 -32 0
-11 -18 0
-11 -25 0
-11 -32 0
-18 -25 0
-18 -32 0
-25 -32 0
-5 -12 0
-5 -19 0
-5 -26 0
-5 -33 0
-12 -19 0
-12 -26 0
-12 -33 0
-19 -26 0
-19 -33 0
-26 -33 0
-6 -13 0
-6 -20 0
-6 -27 0
-6 -34 0
-13 -20 0
-13 -27 0
-13 -34 0
-20 -27 0
-20 -34 0
-27 -34 0
-7 -14 0
-7 -21 0
-7 -28 0
-7 -35 0
-14 -21 0
-14 -28 0
-14 -35 0
-21 -28 0
-21 -35 0
-28 -35 0
